# Solution for model r3_t9_m0_4
# Finished Task: 9 / 9
# Makespan: 545.0, Total Distance: 464.0, Total Time: 0.0322
# R O S F
0 0 3 0.0 0.0
1 1 9 0.0 0.0
2 2 10 0.0 0.0
3 0 8 380.0 410.0
4 0 -1 511.0 540.0
5 2 6 380.0 407.0
6 2 -1 511.0 545.0
7 1 -1 485.0 511.0
8 0 4 459.0 485.0
9 1 11 133.0 171.0
10 2 5 341.0 368.0
11 1 7 343.0 381.0
